NAME : arr.tsp
COMMENT : hello world
DIMENSION : 100
NODE_COORD_SECTION
0 0.0000 0.0000
1 1.0101 1.0101
2 2.0202 2.0202
3 3.0303 3.0303
4 4.0404 4.0404
5 5.0505 5.0505
6 6.0606 6.0606
7 7.0707 7.0707
8 8.0808 8.0808
9 9.0909 9.0909
10 10.1010 10.1010
11 11.1111 11.1111
12 12.1212 12.1212
13 13.1313 13.1313
14 14.1414 14.1414
15 15.1515 15.1515
16 16.1616 16.1616
17 17.1717 17.1717
18 18.1818 18.1818
19 19.1919 19.1919
20 20.2020 20.2020
21 21.2121 21.2121
22 22.2222 22.2222
23 23.2323 23.2323
24 24.2424 24.2424
25 25.2525 25.2525
26 26.2626 26.2626
27 27.2727 27.2727
28 28.2828 28.2828
29 29.2929 29.2929
30 30.3030 30.3030
31 31.3131 31.3131
32 32.3232 32.3232
33 33.3333 33.3333
34 34.3434 34.3434
35 35.3535 35.3535
36 36.3636 36.3636
37 37.3737 37.3737
38 38.3838 38.3838
39 39.3939 39.3939
40 40.4040 40.4040
41 41.4141 41.4141
42 42.4242 42.4242
43 43.4343 43.4343
44 44.4444 44.4444
45 45.4545 45.4545
46 46.4646 46.4646
47 47.4747 47.4747
48 48.4848 48.4848
49 49.4949 49.4949
50 50.5051 50.5051
51 51.5152 51.5152
52 52.5253 52.5253
53 53.5354 53.5354
54 54.5455 54.5455
55 55.5556 55.5556
56 56.5657 56.5657
57 57.5758 57.5758
58 58.5859 58.5859
59 59.5960 59.5960
60 60.6061 60.6061
61 61.6162 61.6162
62 62.6263 62.6263
63 63.6364 63.6364
64 64.6465 64.6465
65 65.6566 65.6566
66 66.6667 66.6667
67 67.6768 67.6768
68 68.6869 68.6869
69 69.6970 69.6970
70 70.7071 70.7071
71 71.7172 71.7172
72 72.7273 72.7273
73 73.7374 73.7374
74 74.7475 74.7475
75 75.7576 75.7576
76 76.7677 76.7677
77 77.7778 77.7778
78 78.7879 78.7879
79 79.7980 79.7980
80 80.8081 80.8081
81 81.8182 81.8182
82 82.8283 82.8283
83 83.8384 83.8384
84 84.8485 84.8485
85 85.8586 85.8586
86 86.8687 86.8687
87 87.8788 87.8788
88 88.8889 88.8889
89 89.8990 89.8990
90 90.9091 90.9091
91 91.9192 91.9192
92 92.9293 92.9293
93 93.9394 93.9394
94 94.9495 94.9495
95 95.9596 95.9596
96 96.9697 96.9697
97 97.9798 97.9798
98 98.9899 98.9899
99 100.0000 100.0000
